StudentsNr = 10;
InstructorsNr = 64;
DaysNr = 2;
SlotsPerDay = 20;
AvailabilitySlotsLenght = 20;
RoomNr = 2;
ProgrammNr = 2;
DegreeNr = 2;
RolesNr = 2;
CoursesNr = 8;
InstructorsProgramm = [{1}, {1}, {2}, {1}, {2}, {1}, {2}, {2}, {1}, {1}, {1, 2}, {2}, {1, 2}, {2}, {2}, {1, 2}, {1}, {1}, {1}, {1}, {2}, {1}, {1}, {2}, {2}, {1}, {2}, {1}, {1}, {2}, {1}, {1}, {1}, {2}, {2}, {2}, {2}, {2}, {1}, {1}, {2}, {1, 2}, {1}, {1}, {2}, {2}, {2}, {1}, {2}, {1}, {2}, {2}, {2}, {1}, {1}, {1}, {1}, {2}, {2}, {1, 2}, {1}, {1, 2}, {1}, {1, 2}];
InstructorRolesPerProgramm = [|{1, 2, 6, 9, 11, 22, 28, 29, 31, 32, 33, 43, 48, 50, 54, 56, 57, 60, 63, 64}, {1, 4, 9, 13, 19, 23, 26, 29, 32, 40, 48, 54, 56, 57, 63}|{3, 7, 8, 11, 25, 35, 36, 37, 38, 41, 45, 46, 47, 49, 53, 58, 59, 60, 64}, {3, 5, 7, 8, 13, 14, 34, 36, 37, 46, 58}|];
InstructorsAvailability = [|0, 0, |0, 1, |0, 1, |1, 1, |1, 1, |1, 1, |0, 1, |1, 1, |1, 1, |0, 1, |0, 0, |0, 1, |0, 0, |1, 0, |0, 1, |0, 1, |1, 1, |1, 1, |0, 1, |0, 0, |1, 1, |0, 0, |0, 1, |0, 0, |1, 1, |1, 1, |1, 1, |0, 1, |0, 1, |1, 1, |1, 0, |1, 1, |1, 1, |1, 1, |0, 1, |0, 0, |0, 0, |0, 1, |1, 0, |1, 1, |0, 1, |0, 0, |1, 1, |1, 1, |1, 1, |0, 1, |1, 1, |1, 1, |1, 1, |1, 1, |0, 1, |0, 1, |1, 1, |1, 1, |0, 0, |1, 0, |1, 1, |0, 1, |0, 0, |0, 1, |1, 1, |1, 1, |0, 1, |0, 1|];
StudentsProgramm = [2, 2, 2, 1, 2, 2, 1, 1, 1, 1];
StudentsDegree = [1, 2, 1, 2, 1, 2, 2, 1, 1, 2];
StudentsSupervisorId = [7, 52, 3, 22, 47, 3, 63, 55, 32, 28];
StudentsCourseIds = [{}, {1, 6, 7}, {}, {2, 5, 8}, {}, {2, 3, 8}, {4, 5, 6}, {}, {}, {2, 6, 8}];
StudentsAvailability = [|0, 0, |1, 0, |0, 1, |0, 0, |0, 1, |0, 1, |0, 0, |0, 0, |0, 1, |1, 0|];
TheoryticalMinCard = [0, 0, 0, 0, 0, 0, 0, 1, 0, 0];
CoursesInstructorIds = [{3, 4, 6, 7, 12, 13, 14, 15, 22, 23, 24, 29, 30, 31, 32, 34, 35, 38, 41, 46, 51, 52, 53, 54, 55, 60, 62, 63, 64}, {1, 2, 8, 14, 15, 22, 25, 27, 28, 29, 30, 39, 48, 52, 58, 62, 64}, {2, 4, 5, 8, 9, 10, 11, 13, 14, 16, 20, 21, 22, 24, 30, 33, 34, 36, 37, 40, 42, 43, 44, 45, 48, 50, 54, 55, 61, 62, 63, 64}, {1, 2, 3, 4, 5, 8, 9, 10, 13, 15, 16, 18, 20, 21, 24, 27, 28, 29, 30, 31, 32, 33, 34, 35, 37, 38, 39, 40, 42, 44, 48, 49, 50, 51, 52, 53, 54, 55, 56, 58, 60, 61, 62, 63, 64}, {43, 54}, {2, 6, 7, 10, 12, 15, 17, 19, 21, 22, 24, 26, 27, 28, 30, 31, 32, 34, 36, 39, 44, 46, 51, 59, 60, 61, 62}, {2, 3, 4, 7, 12, 15, 16, 17, 18, 20, 22, 25, 26, 28, 33, 35, 36, 37, 39, 40, 43, 44, 45, 46, 48, 50, 51, 52, 53, 54, 55, 57, 58, 60, 64}, {2, 3, 4, 5, 6, 7, 8, 10, 11, 13, 14, 17, 18, 20, 22, 25, 26, 27, 30, 31, 32, 36, 37, 38, 39, 40, 41, 43, 44, 45, 46, 49, 51, 52, 58, 59, 60, 64}];
RolesDemands = [4, 9];
RolesContinuity = [1];
ExamLen = [2, 2, 2, 2, 2, 2, 2, 2, 2, 2];
LunchTsMinLen = 1;
LunchStarts = [5..15, 27..35];
SupervisorAvailable = 5;
OptimalLunchLenght = [3, 1];
OptimalStartTs = [1, 1];
OptimalFinishTs = [1, 19];
MinimizeRooms = 300;
RolesSoftContinuity = [|1, 2|1, 4|];
SameDegreeInRoom = 10;
Mergeability = 2;
